NAME : GeneratedProblem
COMMENT : SVGCrosshatch
TYPE : TSP
DIMENSION : 24
EDGE_WEIGHT_TYPE : EUC_2D
NODE_COORD_SECTION
1 3900 9600
2 3900 9700
3 4000 9400
4 4000 9500
5 4000 9600
6 4000 9700
7 4100 9200
8 4100 9300
9 4100 9400
10 4100 9500
11 4100 9600
12 4100 9700
13 4200 9200
14 4200 9300
15 4200 9400
16 4200 9500
17 4200 9600
18 4200 9700
19 4300 9400
20 4300 9500
21 4300 9600
22 4300 9700
23 4400 9600
24 4400 9700
EOF
